MARKOV
231
 2 2 2 2 2 2 2 2 2 2 2 2 2 2 2 2 2 2 2 2 2 2 2 2 2 2 2 2 2 2 2 2 2 2 2 2 2 2 2 2 2 2 2 2 2 2 2 2 2 2 2 2 2 2 2 2 2 2 2 2 2 2 2 2 2 2 2 2 2 2 2 2 2 2 2 2 2 2 2 2 2 2 2 2 2 2 2 2 2 2 2 2 2 2 2 2 2 2 2 2 2 2 2 2 2 2 2 2 2 2 2 2 2 2 2 2 2 2 2 2 2 2 2 2 2 2 2 2 2 2 2 2 2 2 2 2 2 2 2 2 2 2 2 2 2 2 2 2 2 2 2 2 2 2 2 2 2 2 2 2 2 2 2 2 2 2 2 2 2 2 2 2 2 2 2 2 2 2 2 2 2 2 2 2 2 2 2 2 2 2 2 2 2 2 2 2 2 2 2 2 2 2 2 2 2 2 2 2 2 2 2 2 2 2 2 2 2 2 2 2 2 2 2 2 2 2 2 2 2 2 2
862
1	0 
1	1 
1	2 
1	3 
1	4 
1	5 
1	6 
1	7 
1	8 
1	9 
1	10 
1	11 
1	12 
1	13 
1	14 
1	15 
1	16 
1	17 
1	18 
1	19 
1	20 
1	21 
1	22 
1	23 
1	24 
1	25 
1	26 
1	27 
1	28 
1	29 
1	30 
1	31 
1	32 
1	33 
1	34 
1	35 
1	36 
1	37 
1	38 
1	39 
1	40 
1	41 
1	42 
1	43 
1	44 
1	45 
1	46 
1	47 
1	48 
1	49 
1	50 
1	51 
1	52 
1	53 
1	54 
1	55 
1	56 
1	57 
1	58 
1	59 
1	60 
1	61 
1	62 
1	63 
1	64 
1	65 
1	66 
1	67 
1	68 
1	69 
1	70 
1	71 
1	72 
1	73 
1	74 
1	75 
1	76 
1	77 
1	78 
1	79 
1	80 
1	81 
1	82 
1	83 
1	84 
1	85 
1	86 
1	87 
1	88 
1	89 
1	90 
1	91 
1	92 
1	93 
1	94 
1	95 
1	96 
1	97 
1	98 
1	99 
1	100 
1	101 
1	102 
1	103 
1	104 
1	105 
1	106 
1	107 
1	108 
1	109 
1	110 
1	111 
1	112 
1	113 
1	114 
1	115 
1	116 
1	117 
1	118 
1	119 
1	120 
1	121 
1	122 
1	123 
1	124 
1	125 
1	126 
1	127 
1	128 
1	129 
1	130 
1	131 
1	132 
1	133 
1	134 
1	135 
1	136 
1	137 
1	138 
1	139 
1	140 
1	141 
1	142 
1	143 
1	144 
1	145 
1	146 
1	147 
1	148 
1	149 
1	150 
1	151 
1	152 
1	153 
1	154 
1	155 
1	156 
1	157 
1	158 
1	159 
1	160 
1	161 
1	162 
1	163 
1	164 
1	165 
1	166 
1	167 
1	168 
1	169 
1	170 
1	171 
1	172 
1	173 
1	174 
1	175 
1	176 
1	177 
1	178 
1	179 
1	180 
1	181 
1	182 
1	183 
1	184 
1	185 
1	186 
1	187 
1	188 
1	189 
1	190 
1	191 
1	192 
1	193 
1	194 
1	195 
1	196 
1	197 
1	198 
1	199 
1	200 
1	201 
1	202 
1	203 
1	204 
1	205 
1	206 
1	207 
1	208 
1	209 
1	210 
1	211 
1	212 
1	213 
1	214 
1	215 
1	216 
1	217 
1	218 
1	219 
1	220 
1	221 
1	222 
1	223 
1	224 
1	225 
1	226 
1	227 
1	228 
1	229 
1	230 
2	1 2 
2	1 172 
2	1 173 
2	1 180 
2	2 173 
2	2 181 
2	3 4 
2	3 5 
2	3 6 
2	3 102 
2	3 103 
2	3 156 
2	3 157 
2	4 5 
2	4 72 
2	4 102 
2	4 104 
2	4 123 
2	4 124 
2	5 6 
2	5 123 
2	5 177 
2	5 178 
2	6 156 
2	6 174 
2	6 178 
2	7 9 
2	7 99 
2	7 103 
2	7 155 
2	8 9 
2	8 72 
2	8 74 
2	9 72 
2	9 103 
2	9 104 
2	10 11 
2	10 12 
2	10 14 
2	10 15 
2	10 16 
2	10 59 
2	10 64 
2	11 16 
2	11 64 
2	12 14 
2	12 15 
2	12 182 
2	12 214 
2	13 14 
2	13 16 
2	13 184 
2	14 16 
2	14 182 
2	14 184 
2	15 59 
2	15 61 
2	15 138 
2	15 214 
2	17 20 
2	17 22 
2	17 23 
2	17 189 
2	17 212 
2	17 213 
2	18 19 
2	18 21 
2	18 23 
2	18 190 
2	18 192 
2	19 22 
2	19 23 
2	19 131 
2	19 135 
2	19 192 
2	20 22 
2	20 44 
2	20 86 
2	20 135 
2	20 143 
2	20 212 
2	21 23 
2	21 128 
2	21 129 
2	21 187 
2	21 190 
2	22 23 
2	22 135 
2	23 187 
2	23 189 
2	24 26 
2	24 60 
2	24 63 
2	25 26 
2	25 61 
2	25 63 
2	25 138 
2	25 140 
2	25 208 
2	25 210 
2	26 63 
2	26 208 
2	26 209 
2	27 28 
2	27 29 
2	27 30 
2	27 151 
2	27 152 
2	27 153 
2	27 230 
2	28 30 
2	28 73 
2	28 75 
2	28 151 
2	29 30 
2	29 227 
2	29 230 
2	31 34 
2	31 35 
2	31 36 
2	31 37 
2	31 69 
2	31 161 
2	31 195 
2	32 33 
2	32 36 
2	32 37 
2	32 193 
2	32 205 
2	32 207 
2	33 37 
2	33 38 
2	33 147 
2	33 149 
2	33 193 
2	34 68 
2	34 69 
2	34 161 
2	34 163 
2	34 202 
2	34 219 
2	35 36 
2	35 107 
2	35 194 
2	35 195 
2	35 205 
2	36 37 
2	36 205 
2	37 38 
2	37 69 
2	38 67 
2	38 69 
2	38 149 
2	39 40 
2	39 41 
2	39 42 
2	40 41 
2	40 100 
2	40 101 
2	41 42 
2	41 100 
2	41 166 
2	41 170 
2	42 90 
2	42 166 
2	43 44 
2	43 48 
2	43 50 
2	43 86 
2	44 46 
2	44 48 
2	44 86 
2	44 135 
2	45 47 
2	45 51 
2	45 133 
2	45 134 
2	45 225 
2	46 47 
2	46 48 
2	46 52 
2	46 131 
2	46 135 
2	47 51 
2	47 52 
2	47 131 
2	47 134 
2	48 49 
2	48 50 
2	48 52 
2	49 50 
2	49 52 
2	49 53 
2	49 55 
2	49 56 
2	50 55 
2	50 84 
2	50 86 
2	51 52 
2	51 58 
2	51 225 
2	51 226 
2	52 56 
2	52 58 
2	53 55 
2	53 56 
2	53 83 
2	53 85 
2	53 197 
2	54 56 
2	54 57 
2	54 58 
2	54 196 
2	54 197 
2	55 83 
2	55 84 
2	56 58 
2	56 197 
2	57 58 
2	57 196 
2	57 226 
2	57 229 
2	58 226 
2	59 60 
2	59 61 
2	59 62 
2	59 63 
2	59 64 
2	60 62 
2	60 63 
2	61 63 
2	61 138 
2	62 64 
2	65 66 
2	65 70 
2	65 71 
2	65 139 
2	65 198 
2	65 215 
2	66 139 
2	66 140 
2	66 198 
2	66 210 
2	67 68 
2	67 69 
2	67 70 
2	67 148 
2	67 149 
2	67 216 
2	68 69 
2	68 70 
2	68 71 
2	68 202 
2	68 219 
2	70 71 
2	70 215 
2	70 216 
2	71 198 
2	71 199 
2	71 219 
2	72 74 
2	72 104 
2	72 124 
2	73 75 
2	73 136 
2	74 76 
2	74 78 
2	74 124 
2	74 137 
2	75 77 
2	75 136 
2	75 151 
2	75 154 
2	76 77 
2	76 78 
2	76 81 
2	76 137 
2	76 222 
2	77 136 
2	77 137 
2	77 154 
2	77 222 
2	78 81 
2	78 82 
2	78 124 
2	79 80 
2	79 81 
2	79 82 
2	79 223 
2	79 224 
2	80 82 
2	80 123 
2	80 175 
2	80 176 
2	80 224 
2	81 82 
2	81 222 
2	81 223 
2	82 123 
2	82 124 
2	83 84 
2	83 85 
2	83 87 
2	84 86 
2	84 87 
2	84 142 
2	84 144 
2	85 197 
2	86 143 
2	86 144 
2	87 141 
2	87 142 
2	88 91 
2	88 92 
2	88 203 
2	88 206 
2	89 90 
2	89 91 
2	89 93 
2	89 203 
2	89 204 
2	90 91 
2	90 93 
2	90 166 
2	91 203 
2	92 108 
2	92 122 
2	92 206 
2	93 146 
2	93 166 
2	93 170 
2	93 204 
2	94 95 
2	94 97 
2	94 112 
2	94 157 
2	94 217 
2	94 221 
2	95 96 
2	95 112 
2	95 155 
2	95 157 
2	96 99 
2	96 112 
2	96 114 
2	96 115 
2	96 155 
2	97 98 
2	97 156 
2	97 157 
2	97 159 
2	97 217 
2	98 156 
2	98 159 
2	98 160 
2	98 174 
2	99 115 
2	99 155 
2	100 101 
2	100 169 
2	100 170 
2	100 179 
2	101 179 
2	101 180 
2	102 103 
2	102 104 
2	103 104 
2	103 155 
2	103 157 
2	105 106 
2	105 108 
2	105 109 
2	105 110 
2	105 120 
2	105 122 
2	105 130 
2	105 185 
2	106 107 
2	106 109 
2	106 128 
2	106 130 
2	107 109 
2	107 126 
2	107 128 
2	107 194 
2	107 205 
2	108 110 
2	108 122 
2	108 206 
2	109 110 
2	109 205 
2	110 205 
2	110 206 
2	110 207 
2	111 112 
2	111 113 
2	111 114 
2	111 116 
2	111 117 
2	111 200 
2	111 218 
2	112 114 
2	112 218 
2	112 221 
2	113 114 
2	113 115 
2	113 116 
2	114 115 
2	116 117 
2	116 209 
2	117 200 
2	117 208 
2	117 209 
2	117 210 
2	118 119 
2	118 121 
2	118 186 
2	118 188 
2	119 120 
2	119 185 
2	120 122 
2	120 185 
2	121 186 
2	121 189 
2	121 211 
2	122 206 
2	123 124 
2	123 175 
2	123 177 
2	125 126 
2	125 127 
2	125 129 
2	125 160 
2	125 165 
2	125 194 
2	126 128 
2	126 129 
2	126 194 
2	127 159 
2	127 160 
2	127 165 
2	127 217 
2	128 129 
2	128 130 
2	128 187 
2	128 188 
2	129 158 
2	129 160 
2	129 190 
2	130 185 
2	130 188 
2	131 134 
2	131 135 
2	131 192 
2	132 133 
2	132 134 
2	132 175 
2	132 191 
2	132 192 
2	133 134 
2	133 175 
2	133 176 
2	133 225 
2	134 192 
2	136 137 
2	138 139 
2	138 140 
2	138 214 
2	139 140 
2	139 214 
2	139 215 
2	140 210 
2	141 142 
2	142 144 
2	143 144 
2	143 212 
2	145 146 
2	145 147 
2	145 149 
2	145 150 
2	145 167 
2	145 169 
2	146 147 
2	146 169 
2	146 170 
2	146 204 
2	147 149 
2	147 193 
2	147 203 
2	147 204 
2	148 149 
2	148 150 
2	148 168 
2	148 171 
2	148 216 
2	149 150 
2	150 167 
2	150 171 
2	151 153 
2	151 154 
2	152 153 
2	152 223 
2	152 224 
2	152 228 
2	152 230 
2	153 154 
2	153 223 
2	154 222 
2	154 223 
2	155 157 
2	156 157 
2	156 174 
2	158 160 
2	158 174 
2	158 178 
2	158 190 
2	158 191 
2	159 160 
2	159 217 
2	160 174 
2	161 162 
2	161 163 
2	161 195 
2	162 163 
2	162 165 
2	162 194 
2	162 195 
2	163 164 
2	163 165 
2	163 219 
2	164 165 
2	164 217 
2	164 219 
2	164 220 
2	165 194 
2	165 217 
2	166 170 
2	167 169 
2	167 171 
2	167 172 
2	167 179 
2	168 171 
2	168 173 
2	168 183 
2	168 216 
2	169 170 
2	169 179 
2	171 172 
2	171 173 
2	172 173 
2	172 179 
2	172 180 
2	173 181 
2	173 183 
2	174 178 
2	175 176 
2	175 177 
2	175 178 
2	176 224 
2	176 225 
2	177 178 
2	178 191 
2	179 180 
2	181 183 
2	181 184 
2	182 183 
2	182 184 
2	182 214 
2	182 215 
2	182 216 
2	183 184 
2	183 216 
2	185 188 
2	186 187 
2	186 188 
2	186 189 
2	187 188 
2	187 189 
2	189 211 
2	189 213 
2	190 191 
2	190 192 
2	191 192 
2	193 203 
2	193 207 
2	194 195 
2	196 197 
2	198 199 
2	198 200 
2	198 201 
2	198 210 
2	199 201 
2	199 219 
2	200 201 
2	200 210 
2	200 218 
2	201 218 
2	201 219 
2	201 220 
2	202 219 
2	203 204 
2	203 206 
2	203 207 
2	205 207 
2	206 207 
2	208 209 
2	208 210 
2	211 213 
2	212 213 
2	214 215 
2	215 216 
2	217 220 
2	217 221 
2	218 220 
2	218 221 
2	219 220 
2	220 221 
2	222 223 
2	223 224 
2	224 225 
2	224 228 
2	225 226 
2	225 228 
2	226 228 
2	226 229 
2	226 230 
2	227 229 
2	227 230 
2	228 230 
2	229 230 
0	

2
 0.252912 1
2
 0.42693 1
2
 0.275276 1
2
 1 0.809278
2
 1 0.854351
2
 1 0.497548
2
 0.693419 1
2
 0.952493 1
2
 1 0.482824
2
 1 0.446638
2
 1 0.972034
2
 0.150368 1
2
 0.891418 1
2
 0.473335 1
2
 0.976657 1
2
 1 0.958729
2
 0.369843 1
2
 0.505519 1
2
 0.577952 1
2
 0.301823 1
2
 0.419566 1
2
 0.48658 1
2
 0.307379 1
2
 0.510154 1
2
 1 0.666302
2
 0.0696768 1
2
 0.103115 1
2
 1 0.598415
2
 1 0.123252
2
 1 0.358855
2
 1 0.133099
2
 0.143974 1
2
 0.216791 1
2
 0.403258 1
2
 0.318571 1
2
 0.245609 1
2
 0.306451 1
2
 0.133767 1
2
 0.0949784 1
2
 1 0.785967
2
 0.990708 1
2
 0.412519 1
2
 0.950312 1
2
 1 0.0956564
2
 1 0.156206
2
 0.4877 1
2
 1 0.603323
2
 1 0.588468
2
 1 0.16906
2
 1 0.0745412
2
 1 0.567608
2
 1 0.816743
2
 1 0.175182
2
 1 0.11872
2
 1 0.00920609
2
 1 0.0485765
2
 1 0.0850931
2
 1 0.51986
2
 1 0.785619
2
 0.305248 1
2
 0.395765 1
2
 0.48201 1
2
 1 0.792503
2
 0.510186 1
2
 0.81747 1
2
 0.143821 1
2
 0.0698512 1
2
 0.0682463 1
2
 0.174948 1
2
 0.100822 1
2
 0.296247 1
2
 0.545266 1
2
 0.47067 1
2
 1 0.646722
2
 0.878792 1
2
 1 0.977655
2
 1 0.40101
2
 1 0.842294
2
 1 0.322222
2
 0.470916 1
2
 0.403122 1
2
 1 0.260618
2
 1 0.545011
2
 1 0.126152
2
 0.650877 1
2
 1 0.0639321
2
 0.843826 1
2
 1 0.36726
2
 0.364291 1
2
 0.457012 1
2
 0.690334 1
2
 0.562303 1
2
 0.768391 1
2
 0.999656 1
2
 0.148654 1
2
 0.0437612 1
2
 0.0724878 1
2
 0.0570578 1
2
 0.109223 1
2
 0.11668 1
2
 1 0.422653
2
 1 0.120198
2
 1 0.245472
2
 1 0.917821
2
 1 0.840832
2
 1 0.997989
2
 0.454402 1
2
 0.071424 1
2
 0.802789 1
2
 0.381742 1
2
 0.353261 1
2
 0.432072 1
2
 0.0945632 1
2
 0.615294 1
2
 0.281122 1
2
 0.250542 1
2
 0.799333 1
2
 0.713879 1
2
 1 0.802196
2
 0.737439 1
2
 0.705322 1
2
 1 0.716516
2
 0.415237 1
2
 0.368866 1
2
 1 0.832775
2
 0.101899 1
2
 0.0876832 1
2
 0.0646093 1
2
 0.307469 1
2
 0.259351 1
2
 0.756012 1
2
 0.387437 1
2
 0.201058 1
2
 0.450932 1
2
 0.205686 1
2
 1 0.428466
2
 0.17908 1
2
 0.331767 1
2
 0.264253 1
2
 0.103353 1
2
 0.26812 1
2
 1 0.455519
2
 0.552779 1
2
 0.393896 1
2
 1 0.63631
2
 0.239372 1
2
 0.906471 1
2
 0.336187 1
2
 0.109522 1
2
 0.093876 1
2
 0.514529 1
2
 1 0.200826
2
 0.841864 1
2
 1 0.492182
2
 1 0.158282
2
 0.237225 1
2
 0.0720031 1
2
 0.162378 1
2
 0.12267 1
2
 0.0678029 1
2
 0.0676018 1
2
 0.0756004 1
2
 0.0289819 1
2
 0.0784857 1
2
 0.140444 1
2
 0.128644 1
2
 0.51253 1
2
 0.260831 1
2
 0.103461 1
2
 0.733792 1
2
 1 0.683667
2
 0.524888 1
2
 1 0.726691
2
 1 0.260006
2
 0.450956 1
2
 0.38692 1
2
 0.679202 1
2
 0.271333 1
2
 0.1998 1
2
 0.0984766 1
2
 0.426285 1
2
 0.256668 1
2
 1 0.900327
2
 0.590674 1
2
 1 0.915837
2
 0.496209 1
2
 1 0.927164
2
 0.566627 1
2
 0.453678 1
2
 0.906552 1
2
 0.25823 1
2
 0.0758846 1
2
 0.379844 1
2
 0.204639 1
2
 0.102173 1
2
 0.0981035 1
2
 1 0.206792
2
 1 0.207548
2
 0.173674 1
2
 0.194191 1
2
 0.549799 1
2
 0.159738 1
2
 0.182313 1
2
 1 0.804104
2
 1 0.932377
2
 0.120765 1
2
 0.646304 1
2
 0.102632 1
2
 1 0.826765
2
 0.790985 1
2
 0.252569 1
2
 1 0.281197
2
 1 0.408242
2
 1 0.318933
2
 0.270477 1
2
 0.0444037 1
2
 0.0615466 1
2
 0.121345 1
2
 0.307728 1
2
 0.261598 1
2
 0.124538 1
2
 0.210166 1
2
 1 0.418701
2
 0.652002 1
2
 0.31062 1
2
 0.485868 1
2
 0.489584 1
2
 0.773817 1
2
 0.769465 1
2
 0.455829 1
2
 0.748779 1
4
 1 0.341368 0.341368 0.984921
4
 1 0.342371 0.342371 0.979351
4
 1 0.339675 0.339675 0.985142
4
 1 0.346167 0.346167 0.974962
4
 1 0.337498 0.337498 0.989633
4
 1 0.337015 0.337015 0.994145
4
 0.953432 0.262231 0.262231 1
4
 0.959393 0.266618 0.266618 1
4
 0.961118 0.269264 0.269264 1
4
 0.952148 0.262366 0.262366 1
4
 0.951987 0.263753 0.263753 1
4
 0.96074 0.270185 0.270185 1
4
 0.95638 0.267681 0.267681 1
4
 0.956435 0.262938 0.262938 1
4
 0.943156 0.254133 0.254133 1
4
 0.949212 0.258745 0.258745 1
4
 0.94602 0.256712 0.256712 1
4
 0.955577 0.26099 0.26099 1
4
 0.947243 0.255607 0.255607 1
4
 0.964146 0.26999 0.26999 1
4
 0.961551 0.265356 0.265356 1
4
 0.966097 0.269108 0.269108 1
4
 0.968867 0.271914 0.271914 1
4
 0.965499 0.273602 0.273602 1
4
 0.970391 0.275936 0.275936 1
4
 0.97061 0.274612 0.274612 1
4
 0.934824 0.253685 0.253685 1
4
 0.936294 0.257438 0.257438 1
4
 0.941778 0.258729 0.258729 1
4
 0.941302 0.259805 0.259805 1
4
 0.931314 0.248378 0.248378 1
4
 0.932414 0.247491 0.247491 1
4
 0.9298 0.244236 0.244236 1
4
 0.934772 0.250625 0.250625 1
4
 0.940616 0.256523 0.256523 1
4
 0.937611 0.253169 0.253169 1
4
 0.969566 0.309483 0.309483 1
4
 0.974424 0.309905 0.309905 1
4
 0.975793 0.312484 0.312484 1
4
 0.968424 0.305456 0.305456 1
4
 0.973603 0.312404 0.312404 1
4
 0.963867 0.303212 0.303212 1
4
 0.965437 0.306305 0.306305 1
4
 0.973712 0.314263 0.314263 1
4
 0.965545 0.308127 0.308127 1
4
 0.980792 0.314771 0.314771 1
4
 0.973386 0.307692 0.307692 1
4
 0.984434 0.316035 0.316035 1
4
 0.978812 0.310581 0.310581 1
4
 0.984709 0.321024 0.321024 1
4
 0.9825 0.320942 0.320942 1
4
 0.990421 0.326269 0.326269 1
4
 0.979966 0.31731 0.31731 1
4
 0.985816 0.318665 0.318665 1
4
 0.987866 0.322576 0.322576 1
4
 0.962839 0.301047 0.301047 1
4
 0.963327 0.299301 0.299301 1
4
 0.967338 0.301622 0.301622 1
4
 0.972785 0.306123 0.306123 1
4
 1 0.298136 0.298136 0.973966
4
 1 0.2977 0.2977 0.978187
4
 1 0.29956 0.29956 0.978023
4
 1 0.302204 0.302204 0.972601
4
 1 0.300305 0.300305 0.969438
4
 1 0.302275 0.302275 0.968568
4
 1 0.294262 0.294262 0.992852
4
 1 0.29822 0.29822 0.990125
4
 1 0.297374 0.297374 0.987792
4
 1 0.295185 0.295185 0.997211
4
 1 0.293131 0.293131 0.997938
4
 1 0.294044 0.294044 0.987736
4
 1 0.295881 0.295881 0.98757
4
 1 0.29012 0.29012 0.995699
4
 1 0.291844 0.291844 0.990568
4
 1 0.291659 0.291659 0.997714
4
 1 0.29574 0.29574 0.978626
4
 1 0.293304 0.293304 0.979065
4
 1 0.293964 0.293964 0.974512
4
 1 0.293528 0.293528 0.981432
4
 1 0.296606 0.296606 0.970199
4
 1 0.298328 0.298328 0.969873
4
 1 0.29986 0.29986 0.984857
4
 1 0.30342 0.30342 0.985743
4
 1 0.299944 0.299944 0.992519
4
 1 0.303035 0.303035 0.982758
4
 1 0.297653 0.297653 0.994248
4
 1 0.297153 0.297153 0.982702
4
 1 0.293099 0.293099 0.985685
4
 1 0.302175 0.302175 0.980443
4
 1 0.301649 0.301649 0.97709
4
 0.946278 0.284381 0.284381 1
4
 0.947926 0.28899 0.28899 1
4
 0.949205 0.288361 0.288361 1
4
 0.95102 0.286196 0.286196 1
4
 0.957503 0.29234 0.29234 1
4
 0.953961 0.290201 0.290201 1
4
 0.96149 0.294607 0.294607 1
4
 0.960249 0.292447 0.292447 1
4
 0.952142 0.28565 0.28565 1
4
 0.957826 0.289272 0.289272 1
4
 0.949259 0.287055 0.287055 1
4
 0.947449 0.282554 0.282554 1
4
 0.94474 0.279638 0.279638 1
4
 0.939513 0.237643 0.237643 1
4
 0.948417 0.242382 0.242382 1
4
 0.942842 0.23906 0.23906 1
4
 0.941942 0.240363 0.240363 1
4
 0.951083 0.246433 0.246433 1
4
 0.946821 0.243856 0.243856 1
4
 0.953918 0.247165 0.247165 1
4
 0.935932 0.234509 0.234509 1
4
 0.928395 0.230189 0.230189 1
4
 0.929751 0.2326 0.2326 1
4
 0.935039 0.235787 0.235787 1
4
 0.944803 0.239186 0.239186 1
4
 0.954455 0.245027 0.245027 1
4
 0.955903 0.247296 0.247296 1
4
 0.999476 0.311997 0.311997 1
4
 1 0.313833 0.313833 0.991352
4
 1 0.316965 0.316965 0.987963
4
 1 0.317487 0.317487 0.990685
4
 1 0.315611 0.315611 0.995816
4
 1 0.312039 0.312039 0.997831
4
 1 0.312812 0.312812 0.994754
4
 1 0.325828 0.325828 0.97704
4
 1 0.32212 0.32212 0.978577
4
 1 0.322651 0.322651 0.981274
4
 1 0.32756 0.32756 0.973426
4
 1 0.32238 0.32238 0.975559
4
 1 0.326631 0.326631 0.971133
4
 1 0.323294 0.323294 0.98348
4
 1 0.325436 0.325436 0.983039
4
 1 0.329951 0.329951 0.974685
4
 1 0.328033 0.328033 0.980393
4
 1 0.328213 0.328213 0.975615
4
 0.992875 0.308941 0.308941 1
4
 0.997289 0.312062 0.312062 1
4
 0.995276 0.307908 0.307908 1
4
 0.990481 0.304345 0.304345 1
4
 0.989758 0.305553 0.305553 1
4
 0.987039 0.303187 0.303187 1
4
 1 0.315937 0.315937 0.98569
4
 1 0.312301 0.312301 0.986354
4
 1 0.309842 0.309842 0.992187
4
 1 0.311798 0.311798 0.992466
4
 1 0.316191 0.316191 0.982651
4
 1 0.319615 0.319615 0.985027
4
 1 0.319346 0.319346 0.979291
4
 1 0.322263 0.322263 0.987298
4
 1 0.31825 0.31825 0.992858
4
 1 0.322724 0.322724 0.99141
4
 1 0.320359 0.320359 0.992412
4
 1 0.326987 0.326987 0.9842
4
 1 0.361051 0.361051 0.944357
4
 1 0.359373 0.359373 0.943879
4
 1 0.359946 0.359946 0.940652
4
 1 0.357507 0.357507 0.948022
4
 1 0.354982 0.354982 0.953521
4
 1 0.357031 0.357031 0.952986
4
 1 0.356413 0.356413 0.944303
4
 1 0.353333 0.353333 0.953039
4
 1 0.353781 0.353781 0.947649
4
 1 0.351956 0.351956 0.952023
4
 1 0.352975 0.352975 0.943613
4
 1 0.354345 0.354345 0.944409
4
 1 0.289468 0.289468 0.983086
4
 1 0.286312 0.286312 0.987956
4
 1 0.286867 0.286867 0.98408
4
 1 0.290119 0.290119 0.978515
4
 1 0.287723 0.287723 0.990233
4
 1 0.287296 0.287296 0.988622
4
 1 0.291116 0.291116 0.979175
4
 1 0.290685 0.290685 0.986128
4
 0.987711 0.275401 0.275401 1
4
 0.98196 0.269946 0.269946 1
4
 0.981959 0.273115 0.273115 1
4
 0.987489 0.27719 0.27719 1
4
 0.977998 0.268565 0.268565 1
4
 0.997857 0.282256 0.282256 1
4
 1 0.284587 0.284587 0.995138
4
 0.997689 0.280457 0.280457 1
4
 1 0.286242 0.286242 0.997769
4
 1 0.287943 0.287943 0.992627
4
 0.986714 0.273106 0.273106 1
4
 0.992325 0.276848 0.276848 1
4
 0.996848 0.28319 0.28319 1
4
 0.992269 0.280435 0.280435 1
4
 1 0.282127 0.282127 0.995641
4
 1 0.284715 0.284715 0.989621
4
 0.999315 0.280497 0.280497 1
4
 1 0.282674 0.282674 0.991735
4
 0.997186 0.277892 0.277892 1
4
 1 0.278715 0.278715 0.997991
4
 1 0.281176 0.281176 0.992459
4
 0.996962 0.275992 0.275992 1
4
 1 0.283755 0.283755 0.986458
4
 1 0.28581 0.28581 0.981651
4
 1 0.288501 0.288501 0.980164
4
 0.986548 0.271364 0.271364 1
4
 0.979868 0.265661 0.265661 1
4
 0.97701 0.266327 0.266327 1
4
 0.975695 0.263372 0.263372 1
4
 0.991936 0.273202 0.273202 1
4
 0.985441 0.269302 0.269302 1
4
 1 0.279782 0.279782 0.992681
4
 0.996739 0.274562 0.274562 1
4
 1 0.277617 0.277617 0.99374
4
 1 0.275594 0.275594 0.997934
4
 0.997691 0.27353 0.27353 1
4
 0.988046 0.268005 0.268005 1
4
 0.979869 0.261705 0.261705 1
4
 0.981576 0.264179 0.264179 1
4
 0.981466 0.261743 0.261743 1
4
 0.98899 0.266997 0.266997 1
4
 1 0.280068 0.280068 0.988232
4
 1 0.284296 0.284296 0.982367
4
 0.98522 0.26746 0.26746 1
4
 0.992662 0.270313 0.270313 1
4
 0.977067 0.261173 0.261173 1
4
 0.976958 0.258764 0.258764 1
4
 0.972906 0.258922 0.258922 1
4
 0.971378 0.256 0.256 1
4
 0.9746 0.26137 0.26137 1
4
 0.95396 0.295573 0.295573 1
4
 0.958793 0.297102 0.297102 1
4
 0.955246 0.298391 0.298391 1
4
 0.955246 0.294929 0.294929 1
4
 0.95987 0.301884 0.301884 1
4
 0.950911 0.295132 0.295132 1
4
 0.950912 0.291708 0.291708 1
4
 0.95573 0.293217 0.293217 1
4
 0.963273 0.297669 0.297669 1
4
 0.956802 0.301434 0.301434 1
4
 0.976947 0.302668 0.302668 1
4
 0.988146 0.311164 0.311164 1
4
 0.983883 0.3068 0.3068 1
4
 0.979143 0.305789 0.305789 1
4
 0.976837 0.30138 0.30138 1
4
 0.984933 0.310556 0.310556 1
4
 0.973496 0.301375 0.301375 1
4
 0.968045 0.296944 0.296944 1
4
 0.971204 0.29703 0.29703 1
4
 0.965603 0.29372 0.29372 1
4
 0.998577 0.31647 0.31647 1
4
 1 0.318705 0.318705 0.996992
4
 0.998857 0.318797 0.318797 1
4
 1 0.323928 0.323928 0.994086
4
 1 0.3253 0.3253 0.988742
4
 1 0.322256 0.322256 0.998674
4
 0.997569 0.313833 0.313833 1
4
 0.993432 0.312979 0.312979 1
4
 0.989146 0.30859 0.30859 1
4
 0.990036 0.307287 0.307287 1
4
 0.987316 0.304907 0.304907 1
4
 0.989424 0.310859 0.310859 1
4
 0.990479 0.314665 0.314665 1
4
 0.996168 0.319125 0.319125 1
4
 0.9781 0.301085 0.301085 1
4
 0.982118 0.303279 0.303279 1
4
 0.983332 0.302842 0.302842 1
4
 0.933252 0.246446 0.246446 1
4
 0.938717 0.252266 0.252266 1
4
 0.939931 0.25118 0.25118 1
4
 0.925532 0.229677 0.229677 1
4
 0.921694 0.226772 0.226772 1
4
 0.930689 0.2417 0.2417 1
4
 0.935614 0.24585 0.24585 1
4
 0.937296 0.247876 0.247876 1
4
 0.927194 0.239022 0.239022 1
4
 0.928342 0.23434 0.23434 1
4
 0.92304 0.229147 0.229147 1
4
 0.932155 0.235262 0.235262 1
4
 0.933098 0.236844 0.236844 1
4
 0.930272 0.238406 0.238406 1
4
 0.935667 0.24433 0.24433 1
4
 0.935772 0.243337 0.243337 1
4
 0.927247 0.237544 0.237544 1
4
 0.935405 0.242142 0.242142 1
4
 0.924492 0.231377 0.231377 1
4
 0.926778 0.235765 0.235765 1
4
 0.934565 0.239149 0.239149 1
4
 0.934932 0.240328 0.240328 1
4
 0.940724 0.247515 0.247515 1
4
 0.945649 0.251647 0.251647 1
4
 0.94231 0.250573 0.250573 1
4
 0.957458 0.257858 0.257858 1
4
 0.946978 0.25038 0.25038 1
4
 0.951936 0.25456 0.25456 1
4
 0.951883 0.25233 0.25233 1
4
 0.957243 0.256095 0.256095 1
4
 0.956222 0.25811 0.25811 1
4
 0.961228 0.26242 0.26242 1
4
 0.967564 0.266221 0.266221 1
4
 0.966533 0.263879 0.263879 1
4
 0.961553 0.259667 0.259667 1
4
 0.945756 0.250625 0.250625 1
4
 0.940461 0.245299 0.245299 1
4
 0.945703 0.248429 0.248429 1
4
 0.955685 0.259064 0.259064 1
4
 0.94735 0.253721 0.253721 1
4
 1 0.282096 0.282096 0.983416
4
 1 0.275876 0.275876 0.993461
4
 1 0.279351 0.279351 0.984962
4
 1 0.28905 0.28905 0.9761
4
 1 0.283568 0.283568 0.979118
4
 1 0.287045 0.287045 0.974128
4
 1 0.289274 0.289274 0.972871
4
 0.997972 0.271891 0.271891 1
4
 1 0.294394 0.294394 0.970308
4
 1 0.291997 0.291997 0.971398
4
 1 0.282169 0.282169 0.976646
4
 1 0.284252 0.284252 0.97566
4
 1 0.340944 0.340944 0.948552
4
 1 0.336216 0.336216 0.949937
4
 1 0.337028 0.337028 0.954857
4
 1 0.33583 0.33583 0.953357
4
 1 0.346013 0.346013 0.949672
4
 1 0.343044 0.343044 0.950579
4
 1 0.343019 0.343019 0.95561
4
 1 0.339104 0.339104 0.956898
4
 1 0.34042 0.34042 0.957704
4
 1 0.34602 0.34602 0.947062
4
 1 0.345994 0.345994 0.952075
4
 1 0.350369 0.350369 0.946957
4
 1 0.339111 0.339111 0.954268
4
 1 0.330632 0.330632 0.954963
4
 1 0.331045 0.331045 0.952179
4
 1 0.333221 0.333221 0.95416
4
 1 0.34254 0.34254 0.960182
4
 1 0.347337 0.347337 0.952878
4
 1 0.345545 0.345545 0.957275
4
 1 0.340402 0.340402 0.960128
4
 0.959014 0.274763 0.274763 1
4
 0.966529 0.27927 0.27927 1
4
 0.959283 0.276783 0.276783 1
4
 0.959661 0.27355 0.27355 1
4
 0.968647 0.282489 0.282489 1
4
 0.964305 0.280468 0.280468 1
4
 0.95081 0.269023 0.269023 1
4
 0.955359 0.273866 0.273866 1
4
 0.950864 0.267805 0.267805 1
4
 0.955735 0.270667 0.270667 1
4
 0.941566 0.26259 0.26259 1
4
 0.951077 0.271001 0.271001 1
4
 0.946655 0.267793 0.267793 1
4
 0.942412 0.26455 0.26455 1
4
 0.946602 0.265004 0.265004 1
4
 0.974267 0.282829 0.282829 1
4
 0.967615 0.27768 0.27768 1
4
 0.963224 0.275106 0.275106 1
4
 0.975471 0.284785 0.284785 1
4
 0.972244 0.284096 0.284096 1
4
 0.971754 0.279628 0.279628 1
4
 0.979643 0.286782 0.286782 1
4
 0.983501 0.287989 0.287989 1
4
 0.976677 0.282013 0.282013 1
4
 0.937451 0.260953 0.260953 1
4
 0.941619 0.261401 0.261401 1
4
 1 0.352862 0.352862 0.95803
4
 1 0.34724 0.34724 0.962126
4
 1 0.34947 0.34947 0.957545
4
 1 0.348884 0.348884 0.963045
4
 1 0.350898 0.350898 0.962505
4
 1 0.351828 0.351828 0.963479
4
 0.947774 0.260247 0.260247 1
4
 0.944745 0.256844 0.256844 1
4
 0.944586 0.258202 0.258202 1
4
 0.947135 0.262711 0.262711 1
4
 0.951987 0.265518 0.265518 1
4
 1 0.317332 0.317332 0.970313
4
 1 0.324428 0.324428 0.962067
4
 1 0.319796 0.319796 0.969061
4
 1 0.323119 0.323119 0.965694
4
 1 0.322726 0.322726 0.96034
4
 1 0.324833 0.324833 0.959262
4
 1 0.317619 0.317619 0.967973
4
 1 0.319449 0.319449 0.964555
4
 1 0.312647 0.312647 0.979675
4
 1 0.315943 0.315943 0.974463
4
 1 0.309808 0.309808 0.980004
4
 1 0.313792 0.313792 0.973368
4
 1 0.315074 0.315074 0.978411
4
 1 0.308242 0.308242 0.988127
4
 1 0.308956 0.308956 0.983974
4
 1 0.309332 0.309332 0.98946
4
 1 0.315671 0.315671 0.97995
4
 1 0.326364 0.326364 0.962824
4
 1 0.328096 0.328096 0.956412
4
 1 0.330252 0.330252 0.958402
4
 1 0.321704 0.321704 0.969824
4
 1 0.318999 0.318999 0.974737
4
 1 0.322314 0.322314 0.97135
4
 1 0.328919 0.328919 0.962014
4
 1 0.326564 0.326564 0.966943
4
 0.95284 0.27565 0.27565 1
4
 0.945166 0.271475 0.271475 1
4
 0.94841 0.272386 0.272386 1
4
 0.946228 0.274011 0.274011 1
4
 0.951235 0.278252 0.278252 1
4
 0.955572 0.280855 0.280855 1
4
 0.955411 0.279064 0.279064 1
4
 0.951183 0.272613 0.272613 1
4
 0.958205 0.279297 0.279297 1
4
 0.96063 0.279552 0.279552 1
4
 0.943523 0.268485 0.268485 1
4
 0.939294 0.265234 0.265234 1
4
 0.941352 0.270087 0.270087 1
4
 0.942517 0.266124 0.266124 1
4
 0.947397 0.276828 0.276828 1
4
 0.94278 0.274412 0.274412 1
4
 0.956752 0.283742 0.283742 1
4
 0.950487 0.281563 0.281563 1
4
 0.947769 0.278658 0.278658 1
4
 0.956161 0.285133 0.285133 1
4
 1 0.318077 0.318077 0.958076
4
 1 0.314062 0.314062 0.959529
4
 1 0.312441 0.312441 0.963958
4
 1 0.314018 0.314018 0.964174
4
 1 0.322143 0.322143 0.956626
4
 1 0.318872 0.318872 0.960824
4
 1 0.326374 0.326374 0.954694
4
 1 0.320964 0.320964 0.959962
4
 1 0.310404 0.310404 0.964824
4
 1 0.308139 0.308139 0.966016
4
 1 0.310351 0.310351 0.960876
4
 1 0.330664 0.330664 0.955607
4
 0.95231 0.257958 0.257958 1
4
 0.96702 0.267204 0.267204 1
4
 0.96523 0.267114 0.267114 1
4
 1 0.30268 0.30268 0.997661
4
 0.99104 0.29623 0.29623 1
4
 0.999703 0.299817 0.299817 1
4
 0.992934 0.29548 0.29548 1
4
 0.993491 0.298843 0.298843 1
4
 1 0.30375 0.30375 0.999006
4
 1 0.305444 0.305444 0.98846
4
 1 0.301945 0.301945 0.995254
4
 1 0.305815 0.305815 0.99397
4
 0.982838 0.290716 0.290716 1
4
 0.986709 0.29194 0.29194 1
4
 0.987262 0.295263 0.295263 1
4
 0.979587 0.290014 0.290014 1
4
 1 0.302644 0.302644 0.991071
4
 1 0.310088 0.310088 0.977641
4
 1 0.305762 0.305762 0.981325
4
 1 0.309025 0.309025 0.976982
4
 0.994051 0.292821 0.292821 1
4
 0.995335 0.295475 0.295475 1
4
 1 0.296892 0.296892 0.999622
4
 1 0.315885 0.315885 0.967592
4
 1 0.313 0.313 0.970367
4
 0.996624 0.28503 0.28503 1
4
 1 0.289188 0.289188 0.993632
4
 0.999201 0.288774 0.288774 1
4
 0.982731 0.276737 0.276737 1
4
 0.988264 0.280867 0.280867 1
4
 0.97893 0.275247 0.275247 1
4
 0.985493 0.281363 0.281363 1
4
 0.99082 0.284556 0.284556 1
4
 0.986491 0.278107 0.278107 1
4
 0.977173 0.272542 0.272542 1
4
 0.976132 0.270145 0.270145 1
4
 0.97701 0.269453 0.269453 1
4
 0.994611 0.285964 0.285964 1
4
 0.921486 0.23054 0.23054 1
4
 0.971475 0.302222 0.302222 1
4
 0.966036 0.297779 0.297779 1
4
 0.972731 0.304454 0.304454 1
4
 0.970222 0.300006 0.300006 1
4
 0.976946 0.306732 0.306732 1
4
 0.981454 0.30923 0.30923 1
4
 0.962355 0.292386 0.292386 1
4
 1 0.285629 0.285629 0.971669
4
 1 0.289972 0.289972 0.969435
4
 1 0.294622 0.294622 0.967098
4
 1 0.298764 0.298764 0.965688
4
 1 0.339214 0.339214 0.967434
4
 1 0.334914 0.334914 0.971353
4
 1 0.332968 0.332968 0.977042
4
 1 0.33426 0.33426 0.977866
4
 1 0.337838 0.337838 0.973756
4
 1 0.340007 0.340007 0.96912
4
 1 0.337743 0.337743 0.966239
4
 1 0.342879 0.342879 0.964018
4
 1 0.34508 0.34508 0.959428
4
 1 0.339945 0.339945 0.962287
4
 1 0.331524 0.331524 0.975835
4
 1 0.331705 0.331705 0.971079
4
 1 0.334338 0.334338 0.965371
4
 1 0.335635 0.335635 0.966184
4
 1 0.328207 0.328207 0.986856
4
 1 0.32948 0.32948 0.987688
4
 1 0.328896 0.328896 0.992693
4
 1 0.331008 0.331008 0.987966
4
 1 0.325136 0.325136 0.99677
4
 1 0.330876 0.330876 0.982378
4
 1 0.335716 0.335716 0.979075
4
 1 0.333699 0.333699 0.983483
4
 0.942312 0.241952 0.241952 1
4
 0.938404 0.240089 0.240089 1
4
 0.951457 0.248062 0.248062 1
4
 0.953168 0.250524 0.250524 1
4
 0.958535 0.254262 0.254262 1
4
 0.960744 0.254446 0.254446 1
4
 0.958589 0.251429 0.251429 1
4
 0.943265 0.243578 0.243578 1
4
 0.948895 0.247903 0.247903 1
4
 0.939722 0.242896 0.242896 1
4
 0.944961 0.245995 0.245995 1
4
 0.951505 0.266623 0.266623 1
4
 0.96074 0.271993 0.271993 1
4
 0.97001 0.27688 0.27688 1
4
 0.987319 0.288585 0.288585 1
4
 0.980469 0.282597 0.282597 1
4
 0.98069 0.281241 0.281241 1
4
 0.992322 0.290078 0.290078 1
4
 0.986267 0.28462 0.28462 1
4
 0.984716 0.289981 0.289981 1
4
 0.977609 0.288068 0.288068 1
4
 0.981736 0.285159 0.285159 1
4
 0.997683 0.306878 0.306878 1
4
 0.993155 0.305049 0.305049 1
4
 1 0.310015 0.310015 0.998952
4
 0.992876 0.303327 0.303327 1
4
 0.993546 0.301485 0.301485 1
4
 1 0.306418 0.306418 0.998951
4
 1 0.308352 0.308352 0.999232
4
 0.984881 0.297739 0.297739 1
4
 0.989037 0.299688 0.299688 1
4
 0.984935 0.300371 0.300371 1
4
 0.985545 0.295931 0.295931 1
4
 0.977883 0.29067 0.29067 1
4
 0.981457 0.296606 0.296606 1
4
 0.977662 0.292559 0.292559 1
4
 0.997179 0.30306 0.30306 1
4
 0.98201 0.292573 0.292573 1
4
 1 0.349913 0.349913 0.952129
4
 1 0.341488 0.341488 0.970318
4
 1 0.337272 0.337272 0.97935
4
 1 0.340242 0.340242 0.976605
4
 1 0.343105 0.343105 0.971245
4
 1 0.333108 0.333108 0.988466
4
 1 0.333395 0.333395 0.991524
4
 1 0.329668 0.329668 0.997387
4
 1 0.327199 0.327199 0.997274
4
 1 0.345887 0.345887 0.9611
4
 1 0.345307 0.345307 0.966621
4
 1 0.338199 0.338199 0.981001
4
 1 0.335535 0.335535 0.986802
4
 1 0.33849 0.33849 0.984036
4
 1 0.344047 0.344047 0.972883
4
 1 0.344959 0.344959 0.973867
4
 1 0.335345 0.335345 0.994368
4
 1 0.332071 0.332071 0.995708
4
 0.975144 0.277903 0.277903 1
4
 0.972357 0.26869 0.26869 1
4
 0.971592 0.270983 0.270983 1
4
 0.974378 0.273808 0.273808 1
4
 0.966316 0.262075 0.262075 1
4
 0.972194 0.265645 0.265645 1
4
 0.972574 0.273716 0.273716 1
4
 0.98091 0.279892 0.279892 1
4
 1 0.347861 0.347861 0.968523
4
 0.999752 0.331514 0.331514 1
4
 0.997341 0.33152 0.33152 1
4
 0.993932 0.323866 0.323866 1
4
 0.991534 0.323872 0.323872 1
4
 0.983826 0.314423 0.314423 1
4
 0.988367 0.316984 0.316984 1
4
 0.994044 0.321476 0.321476 1
4
 0.995998 0.327841 0.327841 1
4
 0.998519 0.325417 0.325417 1
4
 1 0.314803 0.314803 0.96694
4
 1 0.307083 0.307083 0.973804
4
 1 0.310361 0.310361 0.969494
4
 1 0.306549 0.306549 0.970474
4
 1 0.308633 0.308633 0.974023
4
 1 0.304842 0.304842 0.975008
4
 1 0.306496 0.306496 0.966504
4
 1 0.304383 0.304383 0.967644
4
 0.992545 0.288686 0.288686 1
4
 0.99791 0.291962 0.291962 1
4
 0.991822 0.286469 0.286469 1
4
 1 0.332577 0.332577 0.966292
4
 1 0.329022 0.329022 0.969716
4
 1 0.308834 0.308834 0.995591
4
 0.986051 0.263997 0.263997 1
4
 0.975084 0.297921 0.297921 1
4
 0.966092 0.291044 0.291044 1
4
 0.970986 0.294017 0.294017 1
4
 0.965495 0.29247 0.29247 1
4
 0.974975 0.296159 0.296159 1
4
 0.9803 0.29966 0.29966 1
4
 0.965984 0.289323 0.289323 1
4
 0.96052 0.287801 0.287801 1
4
 0.960953 0.284571 0.284571 1
4
 0.965821 0.287478 0.287478 1
4
 0.97618 0.295732 0.295732 1
4
 0.972406 0.291697 0.291697 1
4
 0.984216 0.301563 0.301563 1
4
 1 0.336517 0.336517 0.961422
4
 1 0.334025 0.334025 0.959102
4
 1 0.331634 0.331634 0.964016
4
 1 0.323819 0.323819 0.971841
4
 1 0.330455 0.330455 0.962501
4
 0.945855 0.279105 0.279105 1
4
 0.95423 0.285591 0.285591 1
4
 1 0.306568 0.306568 0.962496
4
 1 0.30247 0.30247 0.964497
4
 0.982723 0.311513 0.311513 1
4
 0.992929 0.318501 0.318501 1
4
 0.974156 0.289239 0.289239 1
4
 0.970007 0.285315 0.285315 1
4
 0.967341 0.286907 0.286907 1
4
 0.963222 0.283015 0.283015 1
4
 0.977717 0.295145 0.295145 1
4
 0.969789 0.287169 0.287169 1
4
 0.945332 0.247209 0.247209 1
4
 0.955954 0.254099 0.254099 1
4
 0.967185 0.261404 0.261404 1
4
 0.963553 0.258077 0.258077 1
4
 0.971758 0.262024 0.262024 1
4
 0.969414 0.261592 0.261592 1
4
 0.968109 0.25869 0.25869 1
4
 0.968926 0.256193 0.256193 1
4
 0.965938 0.255623 0.255623 1
4
 0.96296 0.250419 0.250419 1
4
 0.959991 0.249862 0.249862 1
4
 0.963608 0.255201 0.255201 1
4
 0.964421 0.252738 0.252738 1
1
 1

